50
23057

966 10
301 118
862 594
173 65
178 7
446 474
225 996
903 828
221 849
909 69
887 396
587 786
413 762
377 606
686 113
288 102
358 699
447 897
449 789
965 705
657 279
772 928
366 900
518 487
655 52
572 294
713 741
865 230
602 111
637 892
371 261
518 708
976 694
802 476
517 929
635 994
480 609
80 12
222 45
517 318
767 582
794 130
962 852
598 32
473 70
647 253
36 2
649 911
799 50
340 26
